# Solution for model QIU
# Objective value = -1.3287317748584155e+02
X0000 1
X0001 0
X0002 0
X0003 0
X0100 0
X0101 0
X0102 0
X0103 1
X0200 1
X0201 9.9999940175764568e-01
X0202 0
X0203 1
X0300 0
X0301 0
X0302 0
X0303 1
X0400 1
X0401 1
X0402 0
X0403 1
X0500 0
X0501 1
X0502 0
X0503 0
X0600 1
X0601 0
X0602 0
X0603 0
X0700 1
X0701 0
X0702 0
X0703 0
X0800 1
X0801 1
X0802 0
X0803 1
X0900 0
X0901 0
X0902 0
X0903 1
X1000 1
X1001 0
X1002 0
X1003 0
X1100 1
X1101 0
X1102 0
X1103 0
H000100 0
H000101 0
H000102 0
H000103 0
H000200 2.73
H000201 0
H000202 0
H000203 0
H010200 0
H010201 0
H010202 0
H010203 3.77
H000300 0
H000301 0
H000302 0
H000303 0
H010300 0
H010301 0
H010302 0
H010303 0.52
H020300 0
H020301 0
H020302 0
H020303 4.16
H000400 0.52
H000401 0
H000402 0
H000403 0
H010400 0
H010401 0
H010402 0
H010403 2.34
H020400 0
H020401 2.2229986699506611e+01
H020402 0
H020403 1.3300493384924948e-05
H030400 0
H030401 0
H030402 0
H030403 3.64
H000500 0
H000501 0
H000502 0
H000503 0
H010500 0
H010501 0
H010502 0
H010503 0
H020500 0
H020501 2.7299983666060759e+00
H020502 0
H020503 0
H030500 0
H030501 0
H030502 0
H030503 0
H040500 0
H040501 0.52
H040502 0
H040503 0
H000600 0.26
H000601 0
H000602 0
H000603 0
H010600 0
H010601 0
H010602 0
H010603 0
H020600 3.38
H020601 0
H020602 0
H020603 0
H030600 0
H030601 0
H030602 0
H030603 0
H040600 1.82
H040601 0
H040602 0
H040603 0
H050600 0
H050601 0
H050602 0
H050603 0
H000700 0.26
H000701 0
H000702 0
H000703 0
H010700 0
H010701 0
H010702 0
H010703 0
H020700 3.38
H020701 0
H020702 0
H020703 0
H030700 0
H030701 0
H030702 0
H030703 0
H040700 1.82
H040701 0
H040702 0
H040703 0
H050700 0
H050701 0
H050702 0
H050703 0
H060700 0.26
H060701 0
H060702 0
H060703 0
H000800 2.73
H000801 0
H000802 0
H000803 0
H010800 0
H010801 0
H010802 0
H010803 3.51
H020800 0
H020801 2.5999984443867397e-01
H020802 0
H020803 1.55561326044153e-07
H030800 0
H030801 0
H030802 0
H030803 3.9
H040800 0
H040801 1.6870014456054715e+01
H040802 0
H040803 2.4999865439452837e+00
H050800 0
H050801 2.73
H050802 0
H050803 0
H060800 3.38
H060801 0
H060802 0
H060803 0
H070800 3.38
H070801 0
H070802 0
H070803 0
H000900 0
H000901 0
H000902 0
H000903 0
H010900 0
H010901 0
H010902 0
H010903 0.52
H020900 0
H020901 0
H020902 0
H020903 4.94
H030900 0
H030901 0
H030902 0
H030903 1.04
H040900 0
H040901 0
H040902 0
H040903 7.28
H050900 0
H050901 0
H050902 0
H050903 0
H060900 0
H060901 0
H060902 0
H060903 0
H070900 0
H070901 0
H070902 0
H070903 0
H080900 0
H080901 0
H080902 0
H080903 4.42
H001000 0.26
H001001 0
H001002 0
H001003 0
H011000 0
H011001 0
H011002 0
H011003 0
H021000 3.51
H021001 0
H021002 0
H021003 0
H031000 0
H031001 0
H031002 0
H031003 0
H041000 1.3
H041001 0
H041002 0
H041003 0
H051000 0
H051001 0
H051002 0
H051003 0
H061000 0.26
H061001 0
H061002 0
H061003 0
H071000 0.26
H071001 0
H071002 0
H071003 0
H081000 3.51
H081001 0
H081002 0
H081003 0
H091000 0
H091001 0
H091002 0
H091003 0
H001100 0.26
H001101 0
H001102 0
H001103 0
H011100 0
H011101 0
H011102 0
H011103 0
H021100 3.12
H021101 0
H021102 0
H021103 0
H031100 0
H031101 0
H031102 0
H031103 0
H041100 0.78
H041101 0
H041102 0
H041103 0
H051100 0
H051101 0
H051102 0
H051103 0
H061100 0.26
H061101 0
H061102 0
H061103 0
H071100 0.26
H071101 0
H071102 0
H071103 0
H081100 3.12
H081101 0
H081102 0
H081103 0
H091100 0
H091101 0
H091102 0
H091103 0
H101100 0.26
H101101 0
H101102 0
H101103 0
F000100 0.26
F000101 0
F000102 0
F000103 0
F000200 2.73
F000201 0
F000202 0
F000203 0
F010200 0
F010201 0
F010202 0
F010203 3.77
F000300 0.26
F000301 0
F000302 0
F000303 0
F010300 0
F010301 0
F010302 0
F010303 0.52
F020300 0
F020301 0
F020302 0
F020303 4.16
F000400 0.52
F000401 0
F000402 0
F000403 0
F010400 0
F010401 0
F010402 0
F010403 2.34
F020400 0
F020401 2.2229986699506611e+01
F020402 0
F020403 1.3300493384924948e-05
F030400 0
F030401 0
F030402 0
F030403 3.64
F000500 0.26
F000501 0
F000502 0
F000503 0
F010500 0
F010501 0
F010502 0
F010503 0.26
F020500 1.6333939238626077e-06
F020501 2.7299983666060759e+00
F020502 0
F020503 0
F030500 0
F030501 0
F030502 0
F030503 0.26
F040500 0
F040501 0.52
F040502 0
F040503 0
F000600 0.26
F000601 0
F000602 0
F000603 0
F010600 0
F010601 0
F010602 0
F010603 0.26
F020600 3.38
F020601 0
F020602 0
F020603 0
F030600 0
F030601 0
F030602 0
F030603 0.26
F040600 1.82
F040601 0
F040602 0
F040603 0
F050600 0
F050601 0.26
F050602 0
F050603 0
F000700 0.26
F000701 0
F000702 0
F000703 0
F010700 0
F010701 0
F010702 0
F010703 0.26
F020700 3.38
F020701 0
F020702 0
F020703 0
F030700 0
F030701 0
F030702 0
F030703 0.26
F040700 1.82
F040701 0
F040702 0
F040703 0
F050700 0
F050701 0.26
F050702 0
F050703 0
F060700 0.26
F060701 0
F060702 0
F060703 0
F000800 2.73
F000801 0
F000802 0
F000803 0
F010800 0
F010801 0
F010802 0
F010803 3.51
F020800 0
F020801 2.5999984443867397e-01
F020802 0
F020803 1.5556132604288564e-07
F030800 0
F030801 0
F030802 0
F030803 3.9
F040800 0
F040801 1.6870014456054715e+01
F040802 0
F040803 2.4999865439452837e+00
F050800 0
F050801 2.73
F050802 0
F050803 0
F060800 3.38
F060801 0
F060802 0
F060803 0
F070800 3.38
F070801 0
F070802 0
F070803 0
F000900 0.26
F000901 0
F000902 0
F000903 0
F010900 0
F010901 0
F010902 0
F010903 0.52
F020900 0
F020901 0
F020902 0
F020903 4.94
F030900 0
F030901 0
F030902 0
F030903 1.04
F040900 0
F040901 0
F040902 0
F040903 7.28
F050900 0
F050901 0.26
F050902 0
F050903 0
F060900 0.26
F060901 0
F060902 0
F060903 0
F070900 0.52
F070901 0
F070902 0
F070903 0
F080900 0
F080901 0
F080902 0
F080903 4.42
F001000 0.26
F001001 0
F001002 0
F001003 0
F011000 0
F011001 0
F011002 0
F011003 0.26
F021000 3.51
F021001 0
F021002 0
F021003 0
F031000 0
F031001 0
F031002 0
F031003 0.26
F041000 1.3
F041001 0
F041002 0
F041003 0
F051000 0
F051001 0.26
F051002 0
F051003 0
F061000 0.26
F061001 0
F061002 0
F061003 0
F071000 0.26
F071001 0
F071002 0
F071003 0
F081000 3.51
F081001 0
F081002 0
F081003 0
F091000 0
F091001 0
F091002 0
F091003 0.52
F001100 0.26
F001101 0
F001102 0
F001103 0
F011100 0
F011101 0
F011102 0
F011103 0.26
F021100 3.12
F021101 0
F021102 0
F021103 0
F031100 0
F031101 0
F031102 0
F031103 0.26
F041100 0.78
F041101 0
F041102 0
F041103 0
F051100 0
F051101 0.26
F051102 0
F051103 0
F061100 0.26
F061101 0
F061102 0
F061103 0
F071100 0.26
F071101 0
F071102 0
F071103 0
F081100 3.12
F081101 0
F081102 0
F081103 0
F091100 0
F091101 0
F091102 0
F091103 0.52
F101100 0.26
F101101 0
F101102 0
F101103 0
G000100 0
G000101 0
G000102 0
G000103 0.26
G000200 2.73
G000201 0
G000202 0
G000203 0
G010200 0
G010201 0
G010202 0
G010203 3.77
G000300 0
G000301 0
G000302 0
G000303 0.26
G010300 0
G010301 0
G010302 0
G010303 0.52
G020300 0
G020301 0
G020302 0
G020303 4.16
G000400 0.52
G000401 0
G000402 0
G000403 0
G010400 0
G010401 0
G010402 0
G010403 2.34
G020400 0
G020401 2.2229986699506615e+01
G020402 0
G020403 1.3300493384924948e-05
G030400 0
G030401 0
G030402 0
G030403 3.64
G000500 0
G000501 0.26
G000502 0
G000503 0
G010500 0
G010501 0.26
G010502 0
G010503 0
G020500 0
G020501 2.73
G020502 0
G020503 0
G030500 0
G030501 0.26
G030502 0
G030503 0
G040500 0
G040501 0.52
G040502 0
G040503 0
G000600 0.26
G000601 0
G000602 0
G000603 0
G010600 0.26
G010601 0
G010602 0
G010603 0
G020600 3.38
G020601 0
G020602 0
G020603 0
G030600 0.26
G030601 0
G030602 0
G030603 0
G040600 1.82
G040601 0
G040602 0
G040603 0
G050600 0.26
G050601 0
G050602 0
G050603 0
G000700 0.26
G000701 0
G000702 0
G000703 0
G010700 0.26
G010701 0
G010702 0
G010703 0
G020700 3.38
G020701 0
G020702 0
G020703 0
G030700 0.26
G030701 0
G030702 0
G030703 0
G040700 1.82
G040701 0
G040702 0
G040703 0
G050700 0.26
G050701 0
G050702 0
G050703 0
G060700 0.26
G060701 0
G060702 0
G060703 0
G000800 2.73
G000801 0
G000802 0
G000803 0
G010800 0
G010801 0
G010802 0
G010803 3.51
G020800 0
G020801 2.5999984443867397e-01
G020802 0
G020803 1.55561326044153e-07
G030800 0
G030801 0
G030802 0
G030803 3.9
G040800 0
G040801 1.6870014456054715e+01
G040802 0
G040803 2.4999865439452837e+00
G050800 0
G050801 2.73
G050802 0
G050803 0
G060800 3.38
G060801 0
G060802 0
G060803 0
G070800 3.38
G070801 0
G070802 0
G070803 0
G000900 0
G000901 0
G000902 0
G000903 0.26
G010900 0
G010901 0
G010902 0
G010903 0.52
G020900 0
G020901 0
G020902 0
G020903 4.94
G030900 0
G030901 0
G030902 0
G030903 1.04
G040900 0
G040901 0
G040902 0
G040903 7.28
G050900 0
G050901 0
G050902 0
G050903 0.26
G060900 0
G060901 0
G060902 0
G060903 0.26
G070900 0
G070901 0
G070902 0
G070903 0.52
G080900 0
G080901 0
G080902 0
G080903 4.42
G001000 0.26
G001001 0
G001002 0
G001003 0
G011000 0.26
G011001 0
G011002 0
G011003 0
G021000 3.51
G021001 0
G021002 0
G021003 0
G031000 0.26
G031001 0
G031002 0
G031003 0
G041000 1.3
G041001 0
G041002 0
G041003 0
G051000 0.26
G051001 0
G051002 0
G051003 0
G061000 0.26
G061001 0
G061002 0
G061003 0
G071000 0.26
G071001 0
G071002 0
G071003 0
G081000 3.51
G081001 0
G081002 0
G081003 0
G091000 0.52
G091001 0
G091002 0
G091003 0
G001100 0.26
G001101 0
G001102 0
G001103 0
G011100 0.26
G011101 0
G011102 0
G011103 0
G021100 3.12
G021101 0
G021102 0
G021103 0
G031100 0.26
G031101 0
G031102 0
G031103 0
G041100 0.78
G041101 0
G041102 0
G041103 0
G051100 0.26
G051101 0
G051102 0
G051103 0
G061100 0.26
G061101 0
G061102 0
G061103 0
G071100 0.26
G071101 0
G071102 0
G071103 0
G081100 3.12
G081101 0
G081102 0
G081103 0
G091100 0.52
G091101 0
G091102 0
G091103 0
G101100 0.26
G101101 0
G101102 0
G101103 0
